NAME : rnd14_50.tsp
TYPE : TSP
DIMENSION : 50
EDGE_WEIGHT_TYPE : EUC_2D
NODE_COORD_SECTION
1 928 573
2 255 160
3 993 684
4 909 732
5 319 470
6 759 820
7 19 567
8 112 319
9 469 194
10 846 590
11 377 265
12 532 704
13 452 317
14 669 894
15 929 732
16 198 27
17 730 195
18 890 955
19 211 647
20 726 956
21 974 503
22 757 237
23 826 153
24 348 572
25 110 349
26 760 347
27 986 75
28 807 574
29 956 957
30 169 76
31 790 110
32 375 731
33 734 912
34 481 864
35 324 840
36 157 185
37 606 300
38 749 9
39 499 534
40 364 386
41 554 846
42 177 550
43 529 471
44 272 679
45 314 987
46 206 489
47 320 992
48 741 146
49 117 355
50 992 676
